
  32    4
  10   10   10   10

   0   0   0   0   0   9 2 4 5 6 8 9 16 17 31 
   6  10  10  10  10   5 30 23 22 11 3 
   7  10  10  10  10   7 29 28 26 25 20 14 7 
   8  10  10  10  10   6 24 23 22 21 15 12 
   4  10  10  10  10   5 26 23 21 15 13 
   7  10  10  10  10   4 23 22 20 11 
   3  10  10  10  10   3 27 21 10 
   2  10  10  10  10   3 25 22 14 
   5  10  10  10  10   1 10 
   3  10  10  10  10   2 18 13 
   3  10  10  10  10   2 24 18 
   6  10  10  10  10   2 20 18 
   5  10  10  10  10   1 19 
  10  10  10  10  10   1 18 
   7  10  10  10  10   1 18 
   1  10  10  10  10   1 19 
   6  10  10  10  10   1 18 
   4  10  10  10  10   1 32
   4  10  10  10  10   1 32
   7  10  10  10  10   1 32
  10  10  10  10  10   1 32
   7  10  10  10  10   1 32
   3  10  10  10  10   1 32
   7  10  10  10  10   1 32
   1  10  10  10  10   1 32
   5  10  10  10  10   1 32
   4  10  10  10  10   1 32
   9  10  10  10  10   1 32
   2  10  10  10  10   1 32
   1  10  10  10  10   1 32
  10  10  10  10  10   1 32
   0   0   0   0   0   0 
